robust/generate/spp_dkp_Lefebvre_et_al_2026/src/shortest_path_9_7.kp
49
252

[1.31 1.07 4.02 3.87 2.97 2.46 2.38 0.91 3.34 3.89 3.14 2.17 1.92 3.49 3.67 1.0 4.18 0.26 1.26 1.36 3.05 3.07 4.1 2.63 1.54 1.83 3.94 1.09 1.32 0.33 1.09 3.96 3.67 2.77 4.3 4.08 3.71 4.0 2.89 1.71 2.53 1.64 2.09 1.57 0.72 3.89 2.36 3.58 2.47 0.03 2.73 3.34 1.39 0.12 0.39 1.11 2.68 3.61]

[69 2 66 18 4 68 25 60 26 9 95 93 63 57 21 3 15 26 60 54 73 27 33 47 34 87 58 62 78 51 30 76 79 34 74 74 15 46 52 17 31 85 25 35 54 24 92 32 94 25 14 90 64 24 93 75 3 38]
